p edge 2249 2204
e 1 2
e 1 3
e 1 4
e 1 5
e 1 6
e 1 7
e 1 8
e 1 9
e 1 10
e 1 11
e 1 12
e 1 13
e 1 14
e 1 15
e 1 16
e 1 17
e 1 18
e 1 19
e 1 20
e 1 21
e 1 22
e 1 23
e 1 24
e 1 25
e 1 26
e 1 27
e 1 28
e 1 29
e 1 30
e 1 31
e 1 32
e 1 33
e 1 34
e 1 35
e 1 36
e 1 37
e 1 38
e 1 39
e 1 40
e 1 41
e 1 42
e 1 43
e 1 44
e 1 45
e 1 46
e 1 47
e 1 48
e 1 49
e 1 50
e 1 51
e 1 52
e 1 53
e 1 54
e 1 55
e 1 56
e 1 57
e 1 58
e 1 59
e 1 60
e 1 61
e 1 62
e 1 63
e 1 64
e 1 65
e 1 66
e 1 67
e 1 68
e 1 69
e 1 70
e 1 71
e 1 72
e 1 73
e 1 74
e 1 75
e 1 76
e 1 77
e 1 78
e 1 79
e 1 80
e 1 81
e 1 82
e 1 83
e 1 84
e 1 85
e 86 87
e 86 88
e 86 89
e 86 90
e 86 91
e 86 92
e 86 93
e 86 94
e 86 95
e 86 96
e 86 97
e 86 98
e 86 99
e 86 100
e 86 101
e 86 102
e 86 103
e 86 104
e 86 105
e 86 106
e 86 107
e 86 108
e 86 109
e 86 110
e 86 111
e 112 113
e 112 114
e 112 115
e 112 116
e 112 117
e 112 118
e 112 119
e 112 120
e 112 121
e 112 122
e 112 123
e 112 124
e 112 125
e 112 126
e 112 127
e 112 128
e 112 129
e 112 130
e 112 131
e 112 132
e 112 133
e 112 134
e 112 135
e 112 136
e 112 137
e 112 138
e 112 139
e 112 140
e 112 141
e 112 142
e 112 143
e 112 144
e 112 145
e 112 146
e 112 147
e 112 148
e 112 149
e 112 150
e 112 151
e 112 152
e 112 153
e 112 154
e 112 155
e 112 156
e 112 157
e 112 158
e 112 159
e 112 160
e 112 161
e 112 162
e 112 163
e 112 164
e 112 165
e 112 166
e 112 167
e 112 168
e 112 169
e 112 170
e 112 171
e 112 172
e 112 173
e 112 174
e 112 175
e 176 177
e 176 178
e 176 179
e 176 180
e 176 181
e 176 182
e 176 183
e 176 184
e 176 185
e 176 186
e 176 187
e 176 188
e 176 189
e 176 190
e 176 191
e 176 192
e 176 193
e 176 194
e 176 195
e 176 196
e 176 197
e 176 198
e 176 199
e 176 200
e 176 201
e 176 202
e 176 203
e 176 204
e 176 205
e 176 206
e 176 207
e 208 209
e 208 210
e 208 211
e 208 212
e 208 213
e 208 214
e 208 215
e 208 216
e 208 217
e 208 218
e 208 219
e 208 220
e 208 221
e 222 223
e 222 224
e 222 225
e 222 226
e 222 227
e 222 228
e 222 229
e 222 230
e 222 231
e 222 232
e 222 233
e 222 234
e 222 235
e 222 236
e 222 237
e 222 238
e 222 239
e 222 240
e 222 241
e 222 242
e 222 243
e 222 244
e 222 245
e 222 246
e 222 247
e 222 248
e 222 249
e 222 250
e 222 251
e 222 252
e 222 253
e 222 254
e 222 255
e 222 256
e 222 257
e 222 258
e 222 259
e 222 260
e 222 261
e 222 262
e 222 263
e 222 264
e 222 265
e 222 266
e 222 267
e 222 268
e 222 269
e 222 270
e 222 271
e 222 272
e 222 273
e 222 274
e 222 275
e 222 276
e 222 277
e 222 278
e 222 279
e 222 280
e 222 281
e 222 282
e 222 283
e 222 284
e 222 285
e 222 286
e 222 287
e 222 288
e 222 289
e 222 290
e 222 291
e 222 292
e 222 293
e 222 294
e 222 295
e 222 296
e 222 297
e 222 298
e 222 299
e 222 300
e 222 301
e 222 302
e 222 303
e 222 304
e 222 305
e 222 306
e 222 307
e 222 308
e 309 310
e 309 311
e 309 312
e 309 313
e 309 314
e 309 315
e 309 316
e 309 317
e 309 318
e 309 319
e 309 320
e 309 321
e 309 322
e 309 323
e 309 324
e 309 325
e 309 326
e 309 327
e 309 328
e 309 329
e 309 330
e 309 331
e 309 332
e 309 333
e 309 334
e 309 335
e 309 336
e 309 337
e 309 338
e 309 339
e 309 340
e 309 341
e 309 342
e 309 343
e 309 344
e 309 345
e 309 346
e 309 347
e 309 348
e 309 349
e 309 350
e 309 351
e 309 352
e 309 353
e 309 354
e 309 355
e 309 356
e 309 357
e 309 358
e 309 359
e 309 360
e 309 361
e 309 362
e 363 364
e 363 365
e 363 366
e 363 367
e 363 368
e 363 369
e 363 370
e 363 371
e 363 372
e 363 373
e 363 374
e 363 375
e 363 376
e 363 377
e 363 378
e 363 379
e 363 380
e 363 381
e 363 382
e 363 383
e 363 384
e 363 385
e 363 386
e 363 387
e 363 388
e 363 389
e 363 390
e 363 391
e 363 392
e 363 393
e 394 395
e 394 396
e 394 397
e 394 398
e 394 399
e 394 400
e 394 401
e 394 402
e 394 403
e 394 404
e 394 405
e 394 406
e 394 407
e 394 408
e 394 409
e 394 410
e 394 411
e 394 412
e 394 413
e 394 414
e 394 415
e 394 416
e 394 417
e 394 418
e 394 419
e 394 420
e 394 421
e 394 422
e 394 423
e 394 424
e 394 425
e 394 426
e 394 427
e 394 428
e 394 429
e 394 430
e 394 431
e 394 432
e 394 433
e 394 434
e 394 435
e 394 436
e 394 437
e 394 438
e 394 439
e 394 440
e 394 441
e 394 442
e 394 443
e 394 444
e 394 445
e 394 446
e 394 447
e 394 448
e 394 449
e 394 450
e 394 451
e 394 452
e 394 453
e 394 454
e 394 455
e 394 456
e 394 457
e 394 458
e 394 459
e 394 460
e 394 461
e 394 462
e 394 463
e 394 464
e 394 465
e 466 467
e 466 468
e 466 469
e 466 470
e 466 471
e 466 472
e 466 473
e 466 474
e 466 475
e 466 476
e 466 477
e 466 478
e 466 479
e 466 480
e 466 481
e 466 482
e 466 483
e 466 484
e 466 485
e 466 486
e 466 487
e 466 488
e 466 489
e 466 490
e 466 491
e 466 492
e 466 493
e 466 494
e 466 495
e 466 496
e 466 497
e 466 498
e 466 499
e 466 500
e 466 501
e 466 502
e 466 503
e 466 504
e 466 505
e 466 506
e 466 507
e 466 508
e 466 509
e 466 510
e 466 511
e 466 512
e 466 513
e 466 514
e 466 515
e 466 516
e 466 517
e 466 518
e 466 519
e 466 520
e 466 521
e 466 522
e 466 523
e 466 524
e 466 525
e 466 526
e 466 527
e 466 528
e 466 529
e 466 530
e 466 531
e 466 532
e 466 533
e 466 534
e 466 535
e 466 536
e 466 537
e 466 538
e 466 539
e 466 540
e 466 541
e 466 542
e 466 543
e 466 544
e 466 545
e 466 546
e 466 547
e 466 548
e 466 549
e 466 550
e 466 551
e 552 553
e 552 554
e 552 555
e 552 556
e 552 557
e 552 558
e 552 559
e 552 560
e 552 561
e 552 562
e 552 563
e 552 564
e 552 565
e 552 566
e 552 567
e 552 568
e 552 569
e 552 570
e 552 571
e 552 572
e 552 573
e 552 574
e 552 575
e 552 576
e 552 577
e 552 578
e 552 579
e 552 580
e 552 581
e 552 582
e 552 583
e 552 584
e 552 585
e 552 586
e 552 587
e 552 588
e 552 589
e 552 590
e 552 591
e 552 592
e 552 593
e 552 594
e 552 595
e 552 596
e 552 597
e 552 598
e 552 599
e 552 600
e 552 601
e 552 602
e 552 603
e 604 605
e 604 606
e 604 607
e 604 608
e 604 609
e 604 610
e 604 611
e 604 612
e 604 613
e 604 614
e 604 615
e 604 616
e 604 617
e 604 618
e 604 619
e 604 620
e 604 621
e 604 622
e 604 623
e 604 624
e 604 625
e 604 626
e 604 627
e 604 628
e 604 629
e 604 630
e 604 631
e 604 632
e 604 633
e 604 634
e 604 635
e 636 637
e 636 638
e 636 639
e 636 640
e 636 641
e 636 642
e 636 643
e 636 644
e 636 645
e 636 646
e 636 647
e 636 648
e 636 649
e 636 650
e 636 651
e 636 652
e 636 653
e 636 654
e 655 656
e 655 657
e 655 658
e 655 659
e 655 660
e 655 661
e 655 662
e 655 663
e 655 664
e 655 665
e 655 666
e 655 667
e 655 668
e 655 669
e 655 670
e 655 671
e 655 672
e 655 673
e 655 674
e 655 675
e 655 676
e 655 677
e 655 678
e 655 679
e 655 680
e 655 681
e 655 682
e 655 683
e 655 684
e 655 685
e 655 686
e 655 687
e 655 688
e 655 689
e 655 690
e 655 691
e 655 692
e 655 693
e 655 694
e 655 695
e 655 696
e 655 697
e 655 698
e 655 699
e 655 700
e 655 701
e 655 702
e 655 703
e 655 704
e 655 705
e 655 706
e 655 707
e 655 708
e 655 709
e 655 710
e 655 711
e 655 712
e 655 713
e 655 714
e 655 715
e 655 716
e 655 717
e 655 718
e 655 719
e 655 720
e 655 721
e 655 722
e 655 723
e 655 724
e 655 725
e 655 726
e 655 727
e 655 728
e 655 729
e 655 730
e 655 731
e 655 732
e 655 733
e 655 734
e 655 735
e 655 736
e 655 737
e 655 738
e 655 739
e 655 740
e 741 742
e 741 743
e 741 744
e 741 745
e 741 746
e 741 747
e 741 748
e 741 749
e 741 750
e 741 751
e 741 752
e 741 753
e 741 754
e 741 755
e 741 756
e 741 757
e 741 758
e 741 759
e 741 760
e 741 761
e 741 762
e 741 763
e 741 764
e 741 765
e 741 766
e 741 767
e 741 768
e 741 769
e 741 770
e 741 771
e 741 772
e 741 773
e 741 774
e 741 775
e 741 776
e 741 777
e 741 778
e 741 779
e 741 780
e 741 781
e 741 782
e 741 783
e 741 784
e 741 785
e 741 786
e 741 787
e 741 788
e 741 789
e 741 790
e 741 791
e 741 792
e 741 793
e 741 794
e 741 795
e 741 796
e 741 797
e 741 798
e 741 799
e 741 800
e 741 801
e 741 802
e 741 803
e 741 804
e 741 805
e 741 806
e 741 807
e 741 808
e 741 809
e 741 810
e 741 811
e 741 812
e 741 813
e 741 814
e 741 815
e 816 817
e 816 818
e 816 819
e 816 820
e 816 821
e 816 822
e 816 823
e 816 824
e 816 825
e 816 826
e 816 827
e 816 828
e 816 829
e 816 830
e 816 831
e 816 832
e 816 833
e 816 834
e 816 835
e 816 836
e 816 837
e 816 838
e 816 839
e 816 840
e 816 841
e 816 842
e 816 843
e 816 844
e 816 845
e 816 846
e 816 847
e 816 848
e 816 849
e 816 850
e 816 851
e 816 852
e 853 854
e 853 855
e 853 856
e 853 857
e 853 858
e 853 859
e 853 860
e 853 861
e 853 862
e 853 863
e 853 864
e 853 865
e 853 866
e 853 867
e 853 868
e 853 869
e 853 870
e 853 871
e 853 872
e 853 873
e 853 874
e 875 876
e 875 877
e 875 878
e 875 879
e 875 880
e 875 881
e 875 882
e 875 883
e 875 884
e 875 885
e 875 886
e 875 887
e 875 888
e 875 889
e 875 890
e 875 891
e 875 892
e 875 893
e 875 894
e 875 895
e 875 896
e 875 897
e 875 898
e 875 899
e 875 900
e 875 901
e 875 902
e 875 903
e 875 904
e 875 905
e 875 906
e 875 907
e 875 908
e 875 909
e 875 910
e 875 911
e 875 912
e 875 913
e 875 914
e 875 915
e 875 916
e 875 917
e 875 918
e 875 919
e 875 920
e 875 921
e 875 922
e 875 923
e 875 924
e 875 925
e 875 926
e 875 927
e 875 928
e 875 929
e 875 930
e 875 931
e 875 932
e 875 933
e 875 934
e 875 935
e 875 936
e 875 937
e 875 938
e 875 939
e 875 940
e 875 941
e 875 942
e 875 943
e 875 944
e 875 945
e 875 946
e 875 947
e 875 948
e 949 950
e 949 951
e 949 952
e 949 953
e 949 954
e 949 955
e 949 956
e 949 957
e 949 958
e 949 959
e 949 960
e 949 961
e 949 962
e 949 963
e 949 964
e 949 965
e 949 966
e 949 967
e 949 968
e 949 969
e 949 970
e 949 971
e 949 972
e 949 973
e 949 974
e 949 975
e 949 976
e 949 977
e 949 978
e 949 979
e 949 980
e 949 981
e 949 982
e 949 983
e 949 984
e 949 985
e 949 986
e 949 987
e 949 988
e 949 989
e 949 990
e 949 991
e 949 992
e 949 993
e 949 994
e 949 995
e 949 996
e 949 997
e 949 998
e 949 999
e 949 1000
e 949 1001
e 1002 1003
e 1002 1004
e 1002 1005
e 1002 1006
e 1002 1007
e 1002 1008
e 1002 1009
e 1002 1010
e 1002 1011
e 1002 1012
e 1002 1013
e 1002 1014
e 1002 1015
e 1002 1016
e 1002 1017
e 1002 1018
e 1002 1019
e 1002 1020
e 1002 1021
e 1002 1022
e 1002 1023
e 1002 1024
e 1002 1025
e 1002 1026
e 1002 1027
e 1002 1028
e 1002 1029
e 1002 1030
e 1002 1031
e 1002 1032
e 1002 1033
e 1002 1034
e 1002 1035
e 1002 1036
e 1002 1037
e 1002 1038
e 1002 1039
e 1002 1040
e 1002 1041
e 1002 1042
e 1002 1043
e 1002 1044
e 1002 1045
e 1002 1046
e 1002 1047
e 1002 1048
e 1002 1049
e 1002 1050
e 1002 1051
e 1002 1052
e 1002 1053
e 1002 1054
e 1002 1055
e 1002 1056
e 1002 1057
e 1002 1058
e 1002 1059
e 1002 1060
e 1002 1061
e 1002 1062
e 1002 1063
e 1002 1064
e 1002 1065
e 1066 1067
e 1066 1068
e 1066 1069
e 1066 1070
e 1066 1071
e 1066 1072
e 1066 1073
e 1066 1074
e 1066 1075
e 1066 1076
e 1066 1077
e 1066 1078
e 1066 1079
e 1066 1080
e 1066 1081
e 1066 1082
e 1066 1083
e 1066 1084
e 1066 1085
e 1066 1086
e 1066 1087
e 1066 1088
e 1066 1089
e 1066 1090
e 1066 1091
e 1066 1092
e 1066 1093
e 1066 1094
e 1066 1095
e 1066 1096
e 1066 1097
e 1066 1098
e 1066 1099
e 1066 1100
e 1066 1101
e 1066 1102
e 1066 1103
e 1066 1104
e 1066 1105
e 1066 1106
e 1066 1107
e 1066 1108
e 1066 1109
e 1066 1110
e 1066 1111
e 1066 1112
e 1066 1113
e 1066 1114
e 1066 1115
e 1066 1116
e 1066 1117
e 1066 1118
e 1066 1119
e 1066 1120
e 1066 1121
e 1066 1122
e 1066 1123
e 1066 1124
e 1066 1125
e 1066 1126
e 1066 1127
e 1066 1128
e 1066 1129
e 1066 1130
e 1066 1131
e 1066 1132
e 1066 1133
e 1066 1134
e 1066 1135
e 1066 1136
e 1066 1137
e 1066 1138
e 1066 1139
e 1066 1140
e 1066 1141
e 1066 1142
e 1066 1143
e 1066 1144
e 1066 1145
e 1066 1146
e 1066 1147
e 1066 1148
e 1066 1149
e 1150 1151
e 1150 1152
e 1150 1153
e 1150 1154
e 1150 1155
e 1150 1156
e 1150 1157
e 1150 1158
e 1150 1159
e 1150 1160
e 1150 1161
e 1150 1162
e 1150 1163
e 1150 1164
e 1150 1165
e 1166 1167
e 1166 1168
e 1166 1169
e 1166 1170
e 1166 1171
e 1166 1172
e 1166 1173
e 1166 1174
e 1166 1175
e 1166 1176
e 1166 1177
e 1166 1178
e 1166 1179
e 1166 1180
e 1166 1181
e 1166 1182
e 1166 1183
e 1166 1184
e 1166 1185
e 1166 1186
e 1166 1187
e 1166 1188
e 1166 1189
e 1166 1190
e 1166 1191
e 1192 1193
e 1192 1194
e 1192 1195
e 1192 1196
e 1192 1197
e 1192 1198
e 1192 1199
e 1192 1200
e 1192 1201
e 1192 1202
e 1192 1203
e 1192 1204
e 1192 1205
e 1192 1206
e 1192 1207
e 1192 1208
e 1192 1209
e 1192 1210
e 1192 1211
e 1192 1212
e 1192 1213
e 1192 1214
e 1192 1215
e 1192 1216
e 1192 1217
e 1192 1218
e 1192 1219
e 1192 1220
e 1192 1221
e 1192 1222
e 1192 1223
e 1192 1224
e 1192 1225
e 1192 1226
e 1192 1227
e 1192 1228
e 1192 1229
e 1192 1230
e 1192 1231
e 1192 1232
e 1192 1233
e 1192 1234
e 1192 1235
e 1192 1236
e 1192 1237
e 1192 1238
e 1192 1239
e 1192 1240
e 1192 1241
e 1192 1242
e 1192 1243
e 1192 1244
e 1192 1245
e 1192 1246
e 1192 1247
e 1192 1248
e 1192 1249
e 1192 1250
e 1192 1251
e 1192 1252
e 1253 1254
e 1253 1255
e 1253 1256
e 1253 1257
e 1253 1258
e 1253 1259
e 1253 1260
e 1253 1261
e 1253 1262
e 1253 1263
e 1253 1264
e 1253 1265
e 1253 1266
e 1253 1267
e 1253 1268
e 1253 1269
e 1253 1270
e 1253 1271
e 1253 1272
e 1253 1273
e 1253 1274
e 1253 1275
e 1253 1276
e 1253 1277
e 1253 1278
e 1253 1279
e 1253 1280
e 1253 1281
e 1253 1282
e 1253 1283
e 1253 1284
e 1253 1285
e 1253 1286
e 1253 1287
e 1253 1288
e 1253 1289
e 1253 1290
e 1253 1291
e 1253 1292
e 1253 1293
e 1253 1294
e 1253 1295
e 1253 1296
e 1253 1297
e 1253 1298
e 1253 1299
e 1253 1300
e 1253 1301
e 1253 1302
e 1253 1303
e 1253 1304
e 1253 1305
e 1253 1306
e 1253 1307
e 1253 1308
e 1253 1309
e 1253 1310
e 1253 1311
e 1253 1312
e 1253 1313
e 1253 1314
e 1253 1315
e 1253 1316
e 1253 1317
e 1318 1319
e 1318 1320
e 1318 1321
e 1318 1322
e 1318 1323
e 1318 1324
e 1318 1325
e 1318 1326
e 1318 1327
e 1318 1328
e 1318 1329
e 1318 1330
e 1318 1331
e 1318 1332
e 1318 1333
e 1318 1334
e 1318 1335
e 1318 1336
e 1337 1338
e 1337 1339
e 1337 1340
e 1337 1341
e 1337 1342
e 1337 1343
e 1337 1344
e 1337 1345
e 1337 1346
e 1337 1347
e 1337 1348
e 1337 1349
e 1337 1350
e 1337 1351
e 1337 1352
e 1337 1353
e 1337 1354
e 1337 1355
e 1337 1356
e 1337 1357
e 1337 1358
e 1337 1359
e 1337 1360
e 1337 1361
e 1337 1362
e 1337 1363
e 1337 1364
e 1337 1365
e 1337 1366
e 1337 1367
e 1337 1368
e 1337 1369
e 1337 1370
e 1337 1371
e 1337 1372
e 1337 1373
e 1337 1374
e 1337 1375
e 1337 1376
e 1337 1377
e 1337 1378
e 1379 1380
e 1379 1381
e 1379 1382
e 1379 1383
e 1379 1384
e 1379 1385
e 1379 1386
e 1379 1387
e 1379 1388
e 1379 1389
e 1379 1390
e 1379 1391
e 1379 1392
e 1379 1393
e 1379 1394
e 1379 1395
e 1379 1396
e 1379 1397
e 1379 1398
e 1379 1399
e 1379 1400
e 1379 1401
e 1379 1402
e 1379 1403
e 1379 1404
e 1379 1405
e 1379 1406
e 1379 1407
e 1379 1408
e 1379 1409
e 1379 1410
e 1379 1411
e 1379 1412
e 1379 1413
e 1379 1414
e 1379 1415
e 1379 1416
e 1379 1417
e 1379 1418
e 1379 1419
e 1379 1420
e 1379 1421
e 1379 1422
e 1379 1423
e 1379 1424
e 1379 1425
e 1379 1426
e 1379 1427
e 1379 1428
e 1379 1429
e 1379 1430
e 1379 1431
e 1379 1432
e 1379 1433
e 1379 1434
e 1379 1435
e 1379 1436
e 1379 1437
e 1379 1438
e 1379 1439
e 1379 1440
e 1379 1441
e 1379 1442
e 1379 1443
e 1379 1444
e 1379 1445
e 1379 1446
e 1379 1447
e 1448 1449
e 1448 1450
e 1448 1451
e 1448 1452
e 1448 1453
e 1448 1454
e 1448 1455
e 1448 1456
e 1448 1457
e 1448 1458
e 1448 1459
e 1448 1460
e 1448 1461
e 1448 1462
e 1448 1463
e 1448 1464
e 1448 1465
e 1448 1466
e 1448 1467
e 1448 1468
e 1448 1469
e 1448 1470
e 1448 1471
e 1448 1472
e 1448 1473
e 1448 1474
e 1448 1475
e 1476 1477
e 1476 1478
e 1476 1479
e 1476 1480
e 1476 1481
e 1476 1482
e 1476 1483
e 1476 1484
e 1476 1485
e 1476 1486
e 1476 1487
e 1476 1488
e 1476 1489
e 1476 1490
e 1476 1491
e 1476 1492
e 1493 1494
e 1493 1495
e 1493 1496
e 1493 1497
e 1493 1498
e 1493 1499
e 1493 1500
e 1493 1501
e 1493 1502
e 1493 1503
e 1493 1504
e 1493 1505
e 1493 1506
e 1493 1507
e 1493 1508
e 1493 1509
e 1493 1510
e 1493 1511
e 1493 1512
e 1493 1513
e 1493 1514
e 1493 1515
e 1493 1516
e 1493 1517
e 1493 1518
e 1493 1519
e 1493 1520
e 1493 1521
e 1493 1522
e 1493 1523
e 1493 1524
e 1493 1525
e 1493 1526
e 1493 1527
e 1493 1528
e 1493 1529
e 1493 1530
e 1493 1531
e 1493 1532
e 1493 1533
e 1493 1534
e 1535 1536
e 1535 1537
e 1535 1538
e 1535 1539
e 1535 1540
e 1535 1541
e 1535 1542
e 1535 1543
e 1535 1544
e 1535 1545
e 1535 1546
e 1535 1547
e 1535 1548
e 1535 1549
e 1535 1550
e 1535 1551
e 1535 1552
e 1535 1553
e 1535 1554
e 1535 1555
e 1535 1556
e 1535 1557
e 1535 1558
e 1535 1559
e 1535 1560
e 1535 1561
e 1535 1562
e 1535 1563
e 1535 1564
e 1535 1565
e 1535 1566
e 1535 1567
e 1535 1568
e 1535 1569
e 1535 1570
e 1535 1571
e 1535 1572
e 1535 1573
e 1535 1574
e 1535 1575
e 1535 1576
e 1535 1577
e 1535 1578
e 1535 1579
e 1535 1580
e 1535 1581
e 1535 1582
e 1535 1583
e 1584 1585
e 1584 1586
e 1584 1587
e 1584 1588
e 1584 1589
e 1584 1590
e 1584 1591
e 1584 1592
e 1584 1593
e 1584 1594
e 1584 1595
e 1584 1596
e 1584 1597
e 1584 1598
e 1584 1599
e 1584 1600
e 1584 1601
e 1584 1602
e 1584 1603
e 1584 1604
e 1584 1605
e 1584 1606
e 1584 1607
e 1584 1608
e 1584 1609
e 1584 1610
e 1584 1611
e 1584 1612
e 1584 1613
e 1584 1614
e 1584 1615
e 1584 1616
e 1584 1617
e 1584 1618
e 1584 1619
e 1584 1620
e 1584 1621
e 1584 1622
e 1584 1623
e 1584 1624
e 1584 1625
e 1584 1626
e 1584 1627
e 1584 1628
e 1584 1629
e 1630 1631
e 1630 1632
e 1630 1633
e 1630 1634
e 1630 1635
e 1630 1636
e 1630 1637
e 1630 1638
e 1630 1639
e 1630 1640
e 1630 1641
e 1630 1642
e 1630 1643
e 1630 1644
e 1630 1645
e 1630 1646
e 1630 1647
e 1630 1648
e 1630 1649
e 1630 1650
e 1630 1651
e 1630 1652
e 1630 1653
e 1630 1654
e 1630 1655
e 1630 1656
e 1630 1657
e 1630 1658
e 1630 1659
e 1630 1660
e 1630 1661
e 1630 1662
e 1630 1663
e 1630 1664
e 1630 1665
e 1630 1666
e 1630 1667
e 1630 1668
e 1630 1669
e 1630 1670
e 1630 1671
e 1630 1672
e 1673 1674
e 1673 1675
e 1673 1676
e 1673 1677
e 1673 1678
e 1673 1679
e 1673 1680
e 1673 1681
e 1673 1682
e 1673 1683
e 1673 1684
e 1673 1685
e 1673 1686
e 1673 1687
e 1673 1688
e 1673 1689
e 1673 1690
e 1673 1691
e 1673 1692
e 1673 1693
e 1673 1694
e 1673 1695
e 1673 1696
e 1673 1697
e 1673 1698
e 1673 1699
e 1673 1700
e 1673 1701
e 1673 1702
e 1673 1703
e 1673 1704
e 1673 1705
e 1673 1706
e 1673 1707
e 1673 1708
e 1673 1709
e 1673 1710
e 1711 1712
e 1711 1713
e 1711 1714
e 1711 1715
e 1711 1716
e 1711 1717
e 1711 1718
e 1711 1719
e 1711 1720
e 1711 1721
e 1711 1722
e 1711 1723
e 1711 1724
e 1711 1725
e 1711 1726
e 1711 1727
e 1711 1728
e 1711 1729
e 1711 1730
e 1711 1731
e 1711 1732
e 1711 1733
e 1711 1734
e 1711 1735
e 1711 1736
e 1711 1737
e 1711 1738
e 1711 1739
e 1711 1740
e 1711 1741
e 1711 1742
e 1711 1743
e 1711 1744
e 1711 1745
e 1711 1746
e 1711 1747
e 1711 1748
e 1711 1749
e 1711 1750
e 1711 1751
e 1711 1752
e 1711 1753
e 1711 1754
e 1711 1755
e 1711 1756
e 1711 1757
e 1711 1758
e 1711 1759
e 1711 1760
e 1711 1761
e 1711 1762
e 1711 1763
e 1711 1764
e 1711 1765
e 1711 1766
e 1711 1767
e 1711 1768
e 1711 1769
e 1711 1770
e 1711 1771
e 1711 1772
e 1773 1774
e 1773 1775
e 1773 1776
e 1773 1777
e 1773 1778
e 1773 1779
e 1773 1780
e 1773 1781
e 1773 1782
e 1773 1783
e 1773 1784
e 1773 1785
e 1773 1786
e 1773 1787
e 1773 1788
e 1773 1789
e 1773 1790
e 1773 1791
e 1792 1793
e 1792 1794
e 1792 1795
e 1792 1796
e 1792 1797
e 1792 1798
e 1792 1799
e 1792 1800
e 1792 1801
e 1792 1802
e 1792 1803
e 1804 1805
e 1804 1806
e 1804 1807
e 1804 1808
e 1804 1809
e 1804 1810
e 1804 1811
e 1804 1812
e 1804 1813
e 1804 1814
e 1804 1815
e 1804 1816
e 1804 1817
e 1804 1818
e 1804 1819
e 1804 1820
e 1804 1821
e 1804 1822
e 1804 1823
e 1804 1824
e 1804 1825
e 1804 1826
e 1804 1827
e 1804 1828
e 1804 1829
e 1804 1830
e 1804 1831
e 1804 1832
e 1804 1833
e 1834 1835
e 1834 1836
e 1834 1837
e 1834 1838
e 1834 1839
e 1834 1840
e 1834 1841
e 1834 1842
e 1834 1843
e 1834 1844
e 1834 1845
e 1834 1846
e 1834 1847
e 1834 1848
e 1834 1849
e 1834 1850
e 1834 1851
e 1834 1852
e 1834 1853
e 1834 1854
e 1834 1855
e 1834 1856
e 1834 1857
e 1834 1858
e 1834 1859
e 1834 1860
e 1834 1861
e 1834 1862
e 1834 1863
e 1834 1864
e 1834 1865
e 1834 1866
e 1834 1867
e 1834 1868
e 1834 1869
e 1834 1870
e 1834 1871
e 1834 1872
e 1834 1873
e 1834 1874
e 1834 1875
e 1834 1876
e 1834 1877
e 1834 1878
e 1834 1879
e 1834 1880
e 1834 1881
e 1834 1882
e 1834 1883
e 1834 1884
e 1834 1885
e 1834 1886
e 1834 1887
e 1834 1888
e 1834 1889
e 1834 1890
e 1834 1891
e 1834 1892
e 1834 1893
e 1834 1894
e 1834 1895
e 1834 1896
e 1834 1897
e 1834 1898
e 1899 1900
e 1899 1901
e 1899 1902
e 1899 1903
e 1899 1904
e 1899 1905
e 1899 1906
e 1899 1907
e 1899 1908
e 1899 1909
e 1899 1910
e 1899 1911
e 1899 1912
e 1899 1913
e 1899 1914
e 1899 1915
e 1899 1916
e 1899 1917
e 1899 1918
e 1899 1919
e 1899 1920
e 1899 1921
e 1899 1922
e 1899 1923
e 1899 1924
e 1899 1925
e 1899 1926
e 1899 1927
e 1899 1928
e 1899 1929
e 1899 1930
e 1899 1931
e 1899 1932
e 1899 1933
e 1899 1934
e 1899 1935
e 1899 1936
e 1899 1937
e 1899 1938
e 1899 1939
e 1899 1940
e 1899 1941
e 1899 1942
e 1899 1943
e 1899 1944
e 1899 1945
e 1899 1946
e 1899 1947
e 1899 1948
e 1899 1949
e 1899 1950
e 1899 1951
e 1899 1952
e 1899 1953
e 1899 1954
e 1899 1955
e 1899 1956
e 1899 1957
e 1899 1958
e 1899 1959
e 1899 1960
e 1899 1961
e 1899 1962
e 1899 1963
e 1899 1964
e 1899 1965
e 1899 1966
e 1899 1967
e 1968 1969
e 1968 1970
e 1968 1971
e 1968 1972
e 1968 1973
e 1968 1974
e 1968 1975
e 1968 1976
e 1968 1977
e 1968 1978
e 1968 1979
e 1968 1980
e 1968 1981
e 1968 1982
e 1968 1983
e 1968 1984
e 1968 1985
e 1968 1986
e 1968 1987
e 1968 1988
e 1968 1989
e 1968 1990
e 1968 1991
e 1968 1992
e 1968 1993
e 1968 1994
e 1968 1995
e 1968 1996
e 1968 1997
e 1968 1998
e 1968 1999
e 1968 2000
e 1968 2001
e 1968 2002
e 1968 2003
e 1968 2004
e 1968 2005
e 1968 2006
e 1968 2007
e 1968 2008
e 1968 2009
e 1968 2010
e 1968 2011
e 1968 2012
e 1968 2013
e 1968 2014
e 1968 2015
e 1968 2016
e 1968 2017
e 1968 2018
e 1968 2019
e 1968 2020
e 1968 2021
e 2022 2023
e 2022 2024
e 2022 2025
e 2022 2026
e 2022 2027
e 2022 2028
e 2022 2029
e 2022 2030
e 2022 2031
e 2022 2032
e 2022 2033
e 2022 2034
e 2022 2035
e 2022 2036
e 2022 2037
e 2022 2038
e 2022 2039
e 2022 2040
e 2022 2041
e 2022 2042
e 2022 2043
e 2022 2044
e 2022 2045
e 2022 2046
e 2022 2047
e 2022 2048
e 2022 2049
e 2022 2050
e 2022 2051
e 2022 2052
e 2022 2053
e 2022 2054
e 2022 2055
e 2022 2056
e 2022 2057
e 2022 2058
e 2022 2059
e 2022 2060
e 2022 2061
e 2022 2062
e 2022 2063
e 2022 2064
e 2022 2065
e 2022 2066
e 2022 2067
e 2022 2068
e 2022 2069
e 2022 2070
e 2022 2071
e 2022 2072
e 2022 2073
e 2022 2074
e 2022 2075
e 2022 2076
e 2022 2077
e 2022 2078
e 2022 2079
e 2022 2080
e 2022 2081
e 2022 2082
e 2022 2083
e 2022 2084
e 2022 2085
e 2022 2086
e 2022 2087
e 2022 2088
e 2022 2089
e 2022 2090
e 2022 2091
e 2022 2092
e 2022 2093
e 2022 2094
e 2022 2095
e 2022 2096
e 2022 2097
e 2022 2098
e 2022 2099
e 2022 2100
e 2022 2101
e 2022 2102
e 2022 2103
e 2022 2104
e 2022 2105
e 2022 2106
e 2107 2108
e 2107 2109
e 2107 2110
e 2107 2111
e 2107 2112
e 2107 2113
e 2107 2114
e 2107 2115
e 2107 2116
e 2107 2117
e 2107 2118
e 2107 2119
e 2107 2120
e 2107 2121
e 2107 2122
e 2107 2123
e 2107 2124
e 2107 2125
e 2107 2126
e 2107 2127
e 2107 2128
e 2107 2129
e 2107 2130
e 2107 2131
e 2107 2132
e 2107 2133
e 2107 2134
e 2107 2135
e 2107 2136
e 2107 2137
e 2107 2138
e 2107 2139
e 2107 2140
e 2107 2141
e 2107 2142
e 2107 2143
e 2107 2144
e 2107 2145
e 2107 2146
e 2107 2147
e 2107 2148
e 2107 2149
e 2107 2150
e 2107 2151
e 2107 2152
e 2107 2153
e 2107 2154
e 2107 2155
e 2107 2156
e 2107 2157
e 2107 2158
e 2107 2159
e 2107 2160
e 2107 2161
e 2107 2162
e 2107 2163
e 2107 2164
e 2107 2165
e 2107 2166
e 2107 2167
e 2107 2168
e 2169 2170
e 2169 2171
e 2169 2172
e 2169 2173
e 2169 2174
e 2169 2175
e 2169 2176
e 2169 2177
e 2169 2178
e 2169 2179
e 2169 2180
e 2169 2181
e 2169 2182
e 2169 2183
e 2169 2184
e 2169 2185
e 2169 2186
e 2169 2187
e 2169 2188
e 2169 2189
e 2169 2190
e 2169 2191
e 2169 2192
e 2169 2193
e 2169 2194
e 2169 2195
e 2169 2196
e 2169 2197
e 2169 2198
e 2169 2199
e 2169 2200
e 2169 2201
e 2169 2202
e 2169 2203
e 2169 2204
e 2169 2205
e 2169 2206
e 2169 2207
e 2169 2208
e 2169 2209
e 2169 2210
e 2169 2211
e 2169 2212
e 2169 2213
e 2169 2214
e 2169 2215
e 2169 2216
e 2169 2217
e 2169 2218
e 2169 2219
e 2169 2220
e 2169 2221
e 2169 2222
e 2169 2223
e 2169 2224
e 2169 2225
e 2169 2226
e 2169 2227
e 2169 2228
e 2169 2229
e 2169 2230
e 2169 2231
e 2169 2232
e 2169 2233
e 2169 2234
e 2169 2235
e 2169 2236
e 2169 2237
e 2169 2238
e 2169 2239
e 2169 2240
e 2169 2241
e 2169 2242
e 2169 2243
e 2169 2244
e 2169 2245
e 2169 2246
e 2169 2247
e 2169 2248
e 2169 2249
